112 300 192 95 33 224 246 137 173 133 142 172 70 219 285 224 224 45 284 232 232 96 201 243 116 38 226 250 198 27 182 63 138 126 157 222 101 154 58 274 38 199 145 107 170 129 31 93 226 66 76 209 213 28 152 28 117 129 29 14 155 262 129 44 139 37 265 240 191 23 265 228 273 161 87 142 41 169 286 266 286 113 175 198 141 78 277 257 258 57 23 112 18 203 155 209 239 171 200 129 245 164 57 218 24 195 111 64 63 97 82 48 261 8 